20:07:10 INFO: starting simulation...
20:07:10 INFO: num_compartments: 3
20:07:10 INFO: num_products: 3
20:07:10 INFO: num_destinations: 2
20:07:10 INFO: capacity_compartments: [854. 704. 827.]
20:07:10 INFO: size_package: [22. 20. 17.]
20:07:10 INFO: demand: [array([10., 20.,  9.]), array([ 2., 13., 18.])]
20:07:10 INFO: simulation end
20:07:10 INFO: getting data from instance...
20:07:10 INFO: SimpleTruckLoadingProblem
20:07:10 INFO: Academic license - for non-commercial use only - expires 2021-08-08
20:07:10 INFO: Using license file C:\Users\54498\gurobi.lic
20:07:10 INFO: Changed value of parameter MIPgap to 0.001
20:07:10 INFO:    Prev: 0.0001  Min: 0.0  Max: inf  Default: 0.0001
20:07:10 INFO: Changed value of parameter TimeLimit to 5.0
20:07:10 INFO:    Prev: inf  Min: 0.0  Max: inf  Default: inf
20:07:10 INFO: Parameter OutputFlag unchanged
20:07:10 INFO:    Value: 1  Min: 0  Max: 1  Default: 1
20:07:10 INFO: Changed value of parameter LogFile to ./logs/gurobi.log
20:07:10 INFO:    Prev:   Default: 
20:07:10 INFO: Gurobi Optimizer version 9.1.2 build v9.1.2rc0 (win64)
20:07:10 INFO: Thread count: 4 physical cores, 8 logical processors, using up to 8 threads
20:07:10 INFO: Optimize a model with 9 rows, 19 columns and 42 nonzeros
20:07:10 INFO: Model fingerprint: 0xf5eb1b19
20:07:10 INFO: Variable types: 1 continuous, 18 integer (0 binary)
20:07:10 INFO: Coefficient statistics:
20:07:10 INFO:   Matrix range     [1e+00, 2e+01]
20:07:10 INFO:   Objective range  [1e+00, 1e+00]
20:07:10 INFO:   Bounds range     [0e+00, 0e+00]
20:07:10 INFO:   RHS range        [7e+02, 9e+02]
20:07:10 INFO: Found heuristic solution: objective -0.0000000
20:07:10 INFO: Presolve time: 0.00s
20:07:10 INFO: Presolved: 9 rows, 19 columns, 42 nonzeros
20:07:10 INFO: Variable types: 1 continuous, 18 integer (0 binary)
20:07:10 INFO: 
20:07:10 INFO: Root relaxation: objective 1.724512e+00, 11 iterations, 0.00 seconds
20:07:10 INFO: 
20:07:10 INFO:     Nodes    |    Current Node    |     Objective Bounds      |     Work
20:07:10 INFO:  Expl Unexpl |  Obj  Depth IntInf | Incumbent    BestBd   Gap | It/Node Time
20:07:10 INFO: 
20:07:10 INFO:      0     0    1.72451    0    8   -0.00000    1.72451      -     -    0s
20:07:10 INFO: H    0     0                       1.4444444    1.72451  19.4%     -    0s
20:07:10 INFO: H    0     0                       1.5000000    1.72451  15.0%     -    0s
20:07:10 INFO: H    0     0                       1.6666667    1.72451  3.47%     -    0s
20:07:10 INFO:      0     0    1.70330    0    7    1.66667    1.70330  2.20%     -    0s
20:07:10 INFO: H    0     0                       1.6666667    1.70330  2.20%     -    0s
20:07:10 INFO:      0     0    1.70000    0    7    1.66667    1.70000  2.00%     -    0s
20:07:10 INFO:      0     0    1.70000    0    7    1.66667    1.70000  2.00%     -    0s
20:07:10 INFO:      0     0    1.70000    0    9    1.66667    1.70000  2.00%     -    0s
20:07:10 INFO:      0     0    1.70000    0    9    1.66667    1.70000  2.00%     -    0s
20:07:10 INFO:      0     0    1.69623    0    7    1.66667    1.69623  1.77%     -    0s
20:07:10 INFO: H    0     0                       1.6923077    1.69623  0.23%     -    0s
20:07:10 INFO:      0     0    1.69385    0    4    1.69231    1.69385  0.09%     -    0s
20:07:10 INFO: 
20:07:10 INFO: Cutting planes:
20:07:10 INFO:   MIR: 8
20:07:10 INFO:   StrongCG: 5
20:07:10 INFO: 
20:07:10 INFO: Explored 1 nodes (46 simplex iterations) in 0.04 seconds
20:07:10 INFO: Thread count was 8 (of 8 available processors)
20:07:10 INFO: 
20:07:10 INFO: Solution count 6: 1.69231 1.66667 1.66667 ... -0
20:07:10 INFO: 
20:07:10 INFO: Optimal solution found (tolerance 1.00e-03)
20:07:10 INFO: Best objective 1.692307692308e+00, best bound 1.693846153846e+00, gap 0.0909%
20:07:10 INFO: starting simulation...
20:07:10 INFO: num_compartments: 3
20:07:10 INFO: num_products: 6
20:07:10 INFO: num_destinations: 4
20:07:10 INFO: capacity_compartments: [2803. 3210. 3450.]
20:07:10 INFO: size_package: [21. 22. 18. 24. 22. 20.]
20:07:10 INFO: demand: [array([11., 15., 20., 16., 16., 19.]), array([13., 15., 14., 17., 13., 19.]), array([12.,  8., 12.,  9., 19.,  8.]), array([14., 13., 16., 11., 16., 12.])]
20:07:10 INFO: simulation end
20:07:10 INFO: getting data from instance...
20:07:10 INFO: SimpleTruckLoadingProblem
20:07:10 INFO: Changed value of parameter MIPgap to 0.001
20:07:10 INFO:    Prev: 0.0001  Min: 0.0  Max: inf  Default: 0.0001
20:07:10 INFO: Changed value of parameter TimeLimit to 5.0
20:07:10 INFO:    Prev: inf  Min: 0.0  Max: inf  Default: inf
20:07:10 INFO: Parameter OutputFlag unchanged
20:07:10 INFO:    Value: 1  Min: 0  Max: 1  Default: 1
20:07:10 INFO: Changed value of parameter LogFile to ./logs/gurobi.log
20:07:10 INFO:    Prev:   Default: 
20:07:10 INFO: Gurobi Optimizer version 9.1.2 build v9.1.2rc0 (win64)
20:07:10 INFO: Thread count: 4 physical cores, 8 logical processors, using up to 8 threads
20:07:10 INFO: Optimize a model with 27 rows, 73 columns and 168 nonzeros
20:07:10 INFO: Model fingerprint: 0x089526d6
20:07:10 INFO: Variable types: 1 continuous, 72 integer (0 binary)
20:07:10 INFO: Coefficient statistics:
20:07:10 INFO:   Matrix range     [1e+00, 2e+01]
20:07:10 INFO:   Objective range  [1e+00, 1e+00]
20:07:10 INFO:   Bounds range     [0e+00, 0e+00]
20:07:10 INFO:   RHS range        [3e+03, 3e+03]
20:07:10 INFO: Found heuristic solution: objective -0.0000000
20:07:10 INFO: Presolve time: 0.00s
20:07:10 INFO: Presolved: 27 rows, 73 columns, 168 nonzeros
20:07:10 INFO: Variable types: 1 continuous, 72 integer (0 binary)
20:07:10 INFO: 
20:07:10 INFO: Root relaxation: objective 1.327581e+00, 34 iterations, 0.00 seconds
20:07:10 INFO: 
20:07:10 INFO:     Nodes    |    Current Node    |     Objective Bounds      |     Work
20:07:10 INFO:  Expl Unexpl |  Obj  Depth IntInf | Incumbent    BestBd   Gap | It/Node Time
20:07:10 INFO: 
20:07:10 INFO:      0     0    1.32758    0   26   -0.00000    1.32758      -     -    0s
20:07:10 INFO: H    0     0                       0.9090909    1.32758  46.0%     -    0s
20:07:10 INFO: H    0     0                       1.2941176    1.32758  2.59%     -    0s
20:07:10 INFO:      0     0    1.30986    0   15    1.29412    1.30986  1.22%     -    0s
20:07:10 INFO:      0     0    1.30262    0    9    1.29412    1.30262  0.66%     -    0s
20:07:10 INFO:      0     0    1.30152    0   11    1.29412    1.30152  0.57%     -    0s
20:07:10 INFO:      0     0    1.30152    0   13    1.29412    1.30152  0.57%     -    0s
20:07:10 INFO:      0     0    1.30152    0   12    1.29412    1.30152  0.57%     -    0s
20:07:10 INFO:      0     2    1.30152    0   10    1.29412    1.30152  0.57%     -    0s
20:07:10 INFO: 
20:07:10 INFO: Cutting planes:
20:07:10 INFO:   Gomory: 2
20:07:10 INFO:   MIR: 24
20:07:10 INFO:   StrongCG: 2
20:07:10 INFO:   Inf proof: 1
20:07:10 INFO:   Mod-K: 1
20:07:10 INFO: 
20:07:10 INFO: Explored 13 nodes (93 simplex iterations) in 0.05 seconds
20:07:10 INFO: Thread count was 8 (of 8 available processors)
20:07:10 INFO: 
20:07:10 INFO: Solution count 3: 1.29412 0.909091 -0 
20:07:10 INFO: 
20:07:10 INFO: Optimal solution found (tolerance 1.00e-03)
20:07:10 INFO: Best objective 1.294117647059e+00, best bound 1.294117647059e+00, gap 0.0000%
20:07:15 INFO: starting simulation...
20:07:15 INFO: num_compartments: 3
20:07:15 INFO: num_products: 9
20:07:15 INFO: num_destinations: 6
20:07:15 INFO: capacity_compartments: [7658. 6833. 7891.]
20:07:15 INFO: size_package: [18. 17. 19. 16. 23. 17. 19. 24. 25.]
20:07:15 INFO: demand: [array([11., 14., 10., 12., 14., 12., 12.,  8., 11.]), array([ 5.,  7.,  8., 13.,  4.,  9.,  7., 11.,  8.]), array([ 2., 27., 23., 26., 13., 19., 16., 18.,  9.]), array([11.,  5., 11., 10., 17., 18., 15., 11.,  6.]), array([15., 11., 12., 15., 12., 11., 12., 12., 14.]), array([ 5.,  9., 12., 11., 10.,  4.,  8., 10.,  7.])]
20:07:15 INFO: simulation end
20:07:15 INFO: getting data from instance...
20:07:15 INFO: SimpleTruckLoadingProblem
20:07:15 INFO: Changed value of parameter MIPgap to 0.001
20:07:15 INFO:    Prev: 0.0001  Min: 0.0  Max: inf  Default: 0.0001
20:07:15 INFO: Changed value of parameter TimeLimit to 5.0
20:07:15 INFO:    Prev: inf  Min: 0.0  Max: inf  Default: inf
20:07:15 INFO: Parameter OutputFlag unchanged
20:07:15 INFO:    Value: 1  Min: 0  Max: 1  Default: 1
20:07:15 INFO: Changed value of parameter LogFile to ./logs/gurobi.log
20:07:15 INFO:    Prev:   Default: 
20:07:15 INFO: Gurobi Optimizer version 9.1.2 build v9.1.2rc0 (win64)
20:07:15 INFO: Thread count: 4 physical cores, 8 logical processors, using up to 8 threads
20:07:15 INFO: Optimize a model with 57 rows, 163 columns and 378 nonzeros
20:07:15 INFO: Model fingerprint: 0x0c21eaaa
20:07:15 INFO: Variable types: 1 continuous, 162 integer (0 binary)
20:07:15 INFO: Coefficient statistics:
20:07:15 INFO:   Matrix range     [1e+00, 3e+01]
20:07:15 INFO:   Objective range  [1e+00, 1e+00]
20:07:15 INFO:   Bounds range     [0e+00, 0e+00]
20:07:15 INFO:   RHS range        [7e+03, 8e+03]
20:07:15 INFO: Found heuristic solution: objective -0.0000000
20:07:15 INFO: Presolve time: 0.00s
20:07:15 INFO: Presolved: 57 rows, 163 columns, 378 nonzeros
20:07:15 INFO: Variable types: 1 continuous, 162 integer (0 binary)
20:07:15 INFO: 
20:07:15 INFO: Root relaxation: objective 1.835342e+00, 76 iterations, 0.00 seconds
20:07:15 INFO: 
20:07:15 INFO:     Nodes    |    Current Node    |     Objective Bounds      |     Work
20:07:15 INFO:  Expl Unexpl |  Obj  Depth IntInf | Incumbent    BestBd   Gap | It/Node Time
20:07:15 INFO: 
20:07:15 INFO:      0     0    1.83534    0   56   -0.00000    1.83534      -     -    0s
20:07:15 INFO: H    0     0                       0.3636364    1.83534   405%     -    0s
20:07:15 INFO: H    0     0                       0.8000000    1.83534   129%     -    0s
20:07:15 INFO: H    0     0                       1.7500000    1.83534  4.88%     -    0s
20:07:15 INFO:      0     0    1.81963    0   52    1.75000    1.81963  3.98%     -    0s
20:07:15 INFO: H    0     0                       1.7692308    1.81963  2.85%     -    0s
20:07:15 INFO: H    0     0                       1.7857143    1.81963  1.90%     -    0s
20:07:15 INFO:      0     0    1.81011    0   36    1.78571    1.81011  1.37%     -    0s
20:07:15 INFO: H    0     0                       1.8000000    1.81011  0.56%     -    0s
20:07:15 INFO:      0     0    1.80543    0   19    1.80000    1.80543  0.30%     -    0s
20:07:15 INFO:      0     0    1.80175    0   16    1.80000    1.80175  0.10%     -    0s
20:07:15 INFO: 
20:07:15 INFO: Cutting planes:
20:07:15 INFO:   Gomory: 14
20:07:15 INFO:   MIR: 10
20:07:15 INFO:   StrongCG: 35
20:07:15 INFO: 
20:07:15 INFO: Explored 1 nodes (191 simplex iterations) in 0.04 seconds
20:07:15 INFO: Thread count was 8 (of 8 available processors)
20:07:15 INFO: 
20:07:15 INFO: Solution count 7: 1.8 1.78571 1.76923 ... -0
20:07:15 INFO: 
20:07:15 INFO: Optimal solution found (tolerance 1.00e-03)
20:07:15 INFO: Best objective 1.800000000000e+00, best bound 1.801747234758e+00, gap 0.0971%
20:07:47 INFO: starting simulation...
20:07:47 INFO: num_compartments: 3
20:07:47 INFO: num_products: 12
20:07:47 INFO: num_destinations: 8
20:07:47 INFO: capacity_compartments: [12839. 13355. 11709.]
20:07:47 INFO: size_package: [16. 18. 16. 17. 24. 19. 17. 23. 16. 22. 20. 21.]
20:07:47 INFO: demand: [array([ 4.,  5., 14.,  2.,  6., 12.,  6.,  9., 19., 20., 12., 12.]), array([ 7., 28., 19., 24., 19., 25., 19., 22., 10., 16., 22.,  9.]), array([10.,  4., 12., 18.,  3., 18., 13., 13.,  5., 10.,  7.,  2.]), array([ 6., 13., 17., 14., 12.,  9., 19., 15., 18., 19., 15., 18.]), array([14.,  9., 15., 10., 13., 13., 13., 16., 10.,  9., 16., 15.]), array([16., 16., 10., 14., 10., 21.,  9., 12., 18., 13., 20., 22.]), array([14.,  9., 23., 23., 15., 24., 15., 12., 24., 22., 17., 20.]), array([ 6., 11., 12.,  7., 11.,  6.,  4.,  4.,  5.,  5.,  6., 11.])]
20:07:47 INFO: simulation end
20:07:47 INFO: getting data from instance...
20:07:47 INFO: SimpleTruckLoadingProblem
20:07:47 INFO: Changed value of parameter MIPgap to 0.001
20:07:47 INFO:    Prev: 0.0001  Min: 0.0  Max: inf  Default: 0.0001
20:07:47 INFO: Changed value of parameter TimeLimit to 5.0
20:07:47 INFO:    Prev: inf  Min: 0.0  Max: inf  Default: inf
20:07:47 INFO: Parameter OutputFlag unchanged
20:07:47 INFO:    Value: 1  Min: 0  Max: 1  Default: 1
20:07:47 INFO: Changed value of parameter LogFile to ./logs/gurobi.log
20:07:47 INFO:    Prev:   Default: 
20:07:47 INFO: Gurobi Optimizer version 9.1.2 build v9.1.2rc0 (win64)
20:07:47 INFO: Thread count: 4 physical cores, 8 logical processors, using up to 8 threads
20:07:47 INFO: Optimize a model with 99 rows, 289 columns and 672 nonzeros
20:07:47 INFO: Model fingerprint: 0x0a1088f9
20:07:47 INFO: Variable types: 1 continuous, 288 integer (0 binary)
20:07:47 INFO: Coefficient statistics:
20:07:47 INFO:   Matrix range     [1e+00, 3e+01]
20:07:47 INFO:   Objective range  [1e+00, 1e+00]
20:07:47 INFO:   Bounds range     [0e+00, 0e+00]
20:07:47 INFO:   RHS range        [1e+04, 1e+04]
20:07:47 INFO: Found heuristic solution: objective -0.0000000
20:07:47 INFO: Presolve time: 0.00s
20:07:47 INFO: Presolved: 99 rows, 289 columns, 672 nonzeros
20:07:47 INFO: Variable types: 1 continuous, 288 integer (0 binary)
20:07:47 INFO: 
20:07:47 INFO: Root relaxation: objective 1.563526e+00, 128 iterations, 0.00 seconds
20:07:47 INFO: 
20:07:47 INFO:     Nodes    |    Current Node    |     Objective Bounds      |     Work
20:07:47 INFO:  Expl Unexpl |  Obj  Depth IntInf | Incumbent    BestBd   Gap | It/Node Time
20:07:47 INFO: 
20:07:47 INFO:      0     0    1.56353    0   98   -0.00000    1.56353      -     -    0s
20:07:47 INFO: H    0     0                       1.5000000    1.56353  4.24%     -    0s
20:07:47 INFO:      0     0    1.54859    0   90    1.50000    1.54859  3.24%     -    0s
20:07:47 INFO:      0     0    1.54131    0   83    1.50000    1.54131  2.75%     -    0s
20:07:47 INFO: H    0     0                       1.5263158    1.54131  0.98%     -    0s
20:07:47 INFO:      0     0    1.54127    0   84    1.52632    1.54127  0.98%     -    0s
20:07:47 INFO:      0     0    1.53446    0   26    1.52632    1.53446  0.53%     -    0s
20:07:47 INFO:      0     0    1.53393    0   19    1.52632    1.53393  0.50%     -    0s
20:07:47 INFO:      0     0    1.53387    0   19    1.52632    1.53387  0.50%     -    0s
20:07:47 INFO:      0     0    1.53381    0   21    1.52632    1.53381  0.49%     -    0s
20:07:47 INFO:      0     0    1.53381    0   21    1.52632    1.53381  0.49%     -    0s
20:07:47 INFO:      0     2    1.53381    0   21    1.52632    1.53381  0.49%     -    0s
20:07:48 INFO: 
20:07:48 INFO: Cutting planes:
20:07:48 INFO:   Gomory: 18
20:07:48 INFO:   MIR: 86
20:07:48 INFO:   StrongCG: 8
20:07:48 INFO: 
20:07:48 INFO: Explored 1338 nodes (4702 simplex iterations) in 0.48 seconds
20:07:48 INFO: Thread count was 8 (of 8 available processors)
20:07:48 INFO: 
20:07:48 INFO: Solution count 3: 1.52632 1.5 -0 
20:07:48 INFO: 
20:07:48 INFO: Optimal solution found (tolerance 1.00e-03)
20:07:48 INFO: Best objective 1.526315789474e+00, best bound 1.527153826040e+00, gap 0.0549%
20:09:46 INFO: starting simulation...
20:09:46 INFO: num_compartments: 3
20:09:46 INFO: num_products: 15
20:09:46 INFO: num_destinations: 10
20:09:46 INFO: capacity_compartments: [19789. 18151. 21549.]
20:09:46 INFO: size_package: [19. 15. 24. 18. 22. 19. 23. 23. 20. 21. 16. 19. 19. 20. 24.]
20:09:46 INFO: demand: [array([ 9.,  9., 10.,  9.,  9., 11., 10.,  8., 11.,  9., 10.,  9., 10.,
       10., 10.]), array([ 7.,  7., 14., 22., 17.,  7.,  4., 11., 22., 16.,  5.,  2., 22.,
       20., 19.]), array([11., 11., 11., 10., 10., 10., 11., 10., 11., 10., 11., 10., 11.,
       11., 10.]), array([16., 24., 10., 16., 11., 10., 22., 14., 19., 24., 24., 19., 20.,
       10., 14.]), array([14.,  7., 15., 12., 15.,  7.,  6., 11., 12., 14.,  8., 14., 15.,
        6., 18.]), array([13.,  9.,  6.,  8.,  5., 11.,  7.,  6., 11.,  5.,  7.,  9., 13.,
        6.,  9.]), array([19.,  6., 11., 22., 17., 25., 18.,  8., 19., 26., 16., 19., 16.,
       27., 14.]), array([11.,  8.,  5., 13., 17., 12., 16.,  6., 17.,  3.,  6.,  5., 17.,
       17., 12.]), array([ 4.,  5., 22., 21.,  4., 11., 22.,  5., 16., 22.,  9., 17., 14.,
       16., 13.]), array([11., 11., 12.,  7., 11., 10.,  8., 11., 12., 11.,  9.,  7.,  7.,
       10.,  8.])]
20:09:46 INFO: simulation end
20:09:46 INFO: getting data from instance...
20:09:46 INFO: SimpleTruckLoadingProblem
20:09:46 INFO: Changed value of parameter MIPgap to 0.001
20:09:46 INFO:    Prev: 0.0001  Min: 0.0  Max: inf  Default: 0.0001
20:09:46 INFO: Changed value of parameter TimeLimit to 5.0
20:09:46 INFO:    Prev: inf  Min: 0.0  Max: inf  Default: inf
20:09:46 INFO: Parameter OutputFlag unchanged
20:09:46 INFO:    Value: 1  Min: 0  Max: 1  Default: 1
20:09:46 INFO: Changed value of parameter LogFile to ./logs/gurobi.log
20:09:46 INFO:    Prev:   Default: 
20:09:46 INFO: Gurobi Optimizer version 9.1.2 build v9.1.2rc0 (win64)
20:09:46 INFO: Thread count: 4 physical cores, 8 logical processors, using up to 8 threads
20:09:46 INFO: Optimize a model with 153 rows, 451 columns and 1050 nonzeros
20:09:46 INFO: Model fingerprint: 0xb431430d
20:09:46 INFO: Variable types: 1 continuous, 450 integer (0 binary)
20:09:46 INFO: Coefficient statistics:
20:09:46 INFO:   Matrix range     [1e+00, 3e+01]
20:09:46 INFO:   Objective range  [1e+00, 1e+00]
20:09:46 INFO:   Bounds range     [0e+00, 0e+00]
20:09:46 INFO:   RHS range        [2e+04, 2e+04]
20:09:46 INFO: Found heuristic solution: objective -0.0000000
20:09:46 INFO: Presolve time: 0.00s
20:09:46 INFO: Presolved: 153 rows, 451 columns, 1050 nonzeros
20:09:46 INFO: Variable types: 1 continuous, 450 integer (0 binary)
20:09:46 INFO: 
20:09:46 INFO: Root relaxation: objective 1.617604e+00, 202 iterations, 0.00 seconds
20:09:46 INFO: 
20:09:46 INFO:     Nodes    |    Current Node    |     Objective Bounds      |     Work
20:09:46 INFO:  Expl Unexpl |  Obj  Depth IntInf | Incumbent    BestBd   Gap | It/Node Time
20:09:46 INFO: 
20:09:46 INFO:      0     0    1.61760    0  152   -0.00000    1.61760      -     -    0s
20:09:46 INFO: H    0     0                       0.1428571    1.61760  1032%     -    0s
20:09:46 INFO: H    0     0                       1.2727273    1.61760  27.1%     -    0s
20:09:46 INFO: H    0     0                       1.4545455    1.61760  11.2%     -    0s
20:09:46 INFO: H    0     0                       1.5000000    1.61760  7.84%     -    0s
20:09:46 INFO:      0     0    1.60214    0  151    1.50000    1.60214  6.81%     -    0s
20:09:46 INFO: H    0     0                       1.5555556    1.60214  2.99%     -    0s
20:09:46 INFO: H    0     0                       1.5714286    1.60214  1.95%     -    0s
20:09:46 INFO:      0     0    1.59297    0  106    1.57143    1.59297  1.37%     -    0s
20:09:46 INFO:      0     0    1.59040    0   56    1.57143    1.59040  1.21%     -    0s
20:09:46 INFO: H    0     0                       1.5769231    1.59040  0.85%     -    0s
20:09:46 INFO:      0     0    1.58330    0   29    1.57692    1.58330  0.40%     -    0s
20:09:46 INFO:      0     0    1.58193    0   23    1.57692    1.58193  0.32%     -    0s
20:09:46 INFO:      0     0    1.58130    0   15    1.57692    1.58130  0.28%     -    0s
20:09:46 INFO:      0     0    1.58115    0   17    1.57692    1.58115  0.27%     -    0s
20:09:46 INFO:      0     0    1.58105    0   19    1.57692    1.58105  0.26%     -    0s
20:09:46 INFO:      0     0    1.58097    0   21    1.57692    1.58097  0.26%     -    0s
20:09:47 INFO:      0     0    1.58097    0   21    1.57692    1.58097  0.26%     -    0s
20:09:47 INFO:      0     2    1.58097    0   18    1.57692    1.58097  0.26%     -    0s
20:09:47 INFO: 
20:09:47 INFO: Cutting planes:
20:09:47 INFO:   Gomory: 8
20:09:47 INFO:   MIR: 143
20:09:47 INFO:   Mod-K: 1
20:09:47 INFO: 
20:09:47 INFO: Explored 1152 nodes (3359 simplex iterations) in 0.60 seconds
20:09:47 INFO: Thread count was 8 (of 8 available processors)
20:09:47 INFO: 
20:09:47 INFO: Solution count 8: 1.57692 1.57143 1.55556 ... -0
20:09:47 INFO: 
20:09:47 INFO: Optimal solution found (tolerance 1.00e-03)
20:09:47 INFO: Best objective 1.576923076923e+00, best bound 1.578489641664e+00, gap 0.0993%
